NAME 
ROWS
 N  OBJ
 L  R0      
 E  R1      
 E  R2      
 E  R3      
 E  R4      
 E  R5      
 E  R6      
 E  R7      
 E  R8      
 E  R9      
 E  R10     
 E  R11     
 E  R12     
 E  R13     
 E  R14     
 E  R15     
 E  R16     
 E  R17     
 E  R18     
 E  R19     
 E  R20     
 E  R21     
 E  R22     
 E  R23     
 E  R24     
 E  R25     
 E  R26     
 E  R27     
 E  R28     
 E  R29     
 E  R30     
 E  R31     
 E  R32     
 E  R33     
 E  R34     
 E  R35     
 E  R36     
 E  R37     
 E  R38     
 E  R39     
 E  R40     
COLUMNS
    MARKER    'MARKER'                 'INTORG'
    I0(3)     OBJ       63
    I0(3)     R0        67
    I0(3)     R1        -1
    I0(3)     R40       1
    I1(3)     OBJ       -127
    I1(3)     R0        143
    I1(3)     R2        1
    I1(3)     R40       1
    I2(2)     OBJ       75
    I2(2)     R3        1
    I2(2)     R40       1
    I3(3)     OBJ       147
    I3(3)     R0        11
    I3(3)     R4        8
    I3(3)     R40       1
    I4(3)     OBJ       113
    I4(3)     R0        39
    I4(3)     R5        2
    I4(3)     R40       1
    I5(3)     OBJ       -2
    I5(3)     R0        185
    I5(3)     R6        17
    I5(3)     R40       1
    I6(3)     OBJ       41
    I6(3)     R0        16
    I6(3)     R7        1
    I6(3)     R40       1
    I7(3)     OBJ       84
    I7(3)     R0        168
    I7(3)     R8        2
    I7(3)     R40       1
    I8(3)     OBJ       77
    I8(3)     R0        34
    I8(3)     R9        10
    I8(3)     R40       1
    I9(3)     OBJ       79
    I9(3)     R0        -183
    I9(3)     R10       9
    I9(3)     R40       1
    I10(3)    OBJ       163
    I10(3)    R0        5
    I10(3)    R11       11
    I10(3)    R40       1
    I11(3)    OBJ       -17
    I11(3)    R0        -105
    I11(3)    R12       15
    I11(3)    R40       1
    I12(3)    OBJ       -188
    I12(3)    R0        44
    I12(3)    R13       13
    I12(3)    R40       1
    I13(3)    OBJ       151
    I13(3)    R0        -52
    I13(3)    R14       12
    I13(3)    R40       1
    I14(3)    OBJ       12
    I14(3)    R0        -176
    I14(3)    R15       5
    I14(3)    R40       1
    I15(3)    OBJ       -27
    I15(3)    R0        -31
    I15(3)    R16       3
    I15(3)    R40       1
    I16(3)    OBJ       -110
    I16(3)    R0        164
    I16(3)    R17       3
    I16(3)    R40       1
    I17(3)    OBJ       -130
    I17(3)    R0        125
    I17(3)    R18       2
    I17(3)    R40       1
    I18(3)    OBJ       -187
    I18(3)    R0        -19
    I18(3)    R19       18
    I18(3)    R40       1
    I19(3)    OBJ       -167
    I19(3)    R0        -100
    I19(3)    R20       3
    I19(3)    R40       1
    I20(3)    OBJ       -190
    I20(3)    R0        52
    I20(3)    R21       -1
    I20(3)    R40       1
    I21(3)    OBJ       -52
    I21(3)    R0        -147
    I21(3)    R22       14
    I21(3)    R40       1
    I22(3)    OBJ       128
    I22(3)    R0        -83
    I22(3)    R23       10
    I22(3)    R40       1
    I23(3)    OBJ       9
    I23(3)    R0        -56
    I23(3)    R24       17
    I23(3)    R40       1
    I24(3)    OBJ       -77
    I24(3)    R0        -58
    I24(3)    R25       10
    I24(3)    R40       1
    I25(3)    OBJ       172
    I25(3)    R0        178
    I25(3)    R26       13
    I25(3)    R40       1
    I26(3)    OBJ       178
    I26(3)    R0        134
    I26(3)    R27       16
    I26(3)    R40       1
    I27(3)    OBJ       168
    I27(3)    R0        85
    I27(3)    R28       3
    I27(3)    R40       1
    I28(3)    OBJ       -103
    I28(3)    R0        -114
    I28(3)    R29       2
    I28(3)    R40       1
    I29(3)    OBJ       -146
    I29(3)    R0        -39
    I29(3)    R30       19
    I29(3)    R40       1
    I30(3)    OBJ       56
    I30(3)    R0        19
    I30(3)    R31       4
    I30(3)    R40       1
    I31(3)    OBJ       165
    I31(3)    R0        -165
    I31(3)    R32       13
    I31(3)    R40       1
    I32(3)    OBJ       -85
    I32(3)    R0        -52
    I32(3)    R33       9
    I32(3)    R40       1
    I33(3)    OBJ       -160
    I33(3)    R0        -118
    I33(3)    R34       12
    I33(3)    R40       1
    I34(3)    OBJ       15
    I34(3)    R0        163
    I34(3)    R35       5
    I34(3)    R40       1
    I35(3)    OBJ       -43
    I35(3)    R0        -156
    I35(3)    R36       10
    I35(3)    R40       1
    I36(3)    OBJ       35
    I36(3)    R0        -138
    I36(3)    R37       -1
    I36(3)    R40       1
    I37(3)    OBJ       -194
    I37(3)    R0        20
    I37(3)    R38       10
    I37(3)    R40       1
    MARKER    'MARKER'                 'INTEND'
    C38(38)   OBJ       -3
    C38(38)   R0        8
    C38(38)   R1        16
    C38(38)   R2        6
    C38(38)   R3        14
    C38(38)   R4        7
    C38(38)   R5        -1
    C38(38)   R6        14
    C38(38)   R7        7
    C38(38)   R8        5
    C38(38)   R9        5
    C38(38)   R10       11
    C38(38)   R11       4
    C38(38)   R12       15
    C38(38)   R14       6
    C38(38)   R15       5
    C38(38)   R16       10
    C38(38)   R17       13
    C38(38)   R18       3
    C38(38)   R19       10
    C38(38)   R20       5
    C38(38)   R21       2
    C38(38)   R22       11
    C38(38)   R23       3
    C38(38)   R24       3
    C38(38)   R25       16
    C38(38)   R26       4
    C38(38)   R27       1
    C38(38)   R28       11
    C38(38)   R29       17
    C38(38)   R30       5
    C38(38)   R31       2
    C38(38)   R32       19
    C38(38)   R33       6
    C38(38)   R34       14
    C38(38)   R35       18
    C38(38)   R36       17
    C38(38)   R37       4
    C38(38)   R38       3
    C39(38)   OBJ       4
    C39(38)   R0        6
    C39(38)   R2        -1
    C39(38)   R3        8
    C39(38)   R4        2
    C39(38)   R5        14
    C39(38)   R6        4
    C39(38)   R7        9
    C39(38)   R8        3
    C39(38)   R9        10
    C39(38)   R10       12
    C39(38)   R11       15
    C39(38)   R12       8
    C39(38)   R13       13
    C39(38)   R14       12
    C39(38)   R15       14
    C39(38)   R16       3
    C39(38)   R17       13
    C39(38)   R18       -1
    C39(38)   R19       7
    C39(38)   R20       13
    C39(38)   R21       7
    C39(38)   R22       17
    C39(38)   R23       18
    C39(38)   R24       6
    C39(38)   R25       18
    C39(38)   R26       14
    C39(38)   R27       4
    C39(38)   R28       4
    C39(38)   R29       7
    C39(38)   R30       2
    C39(38)   R32       17
    C39(38)   R33       4
    C39(38)   R34       15
    C39(38)   R35       3
    C39(38)   R36       6
    C39(38)   R37       16
    C39(38)   R38       14
    C39(38)   R39       14
    C40(1)    R1        1
    C41(1)    R2        1
    C42(1)    R3        1
    C43(1)    R4        1
    C44(1)    R5        1
    C45(1)    R6        1
    C46(1)    R7        1
    C47(1)    R8        1
    C48(1)    R9        1
    C49(1)    R10       1
    C50(1)    R11       1
    C51(1)    R12       1
    C52(1)    R13       1
    C53(1)    R14       1
    C54(1)    R15       1
    C55(1)    R16       1
    C56(1)    R17       1
    C57(1)    R18       1
    C58(1)    R19       1
    C59(1)    R20       1
    C60(1)    R21       1
    C61(1)    R22       1
    C62(1)    R23       1
    C63(1)    R24       1
    C64(1)    R25       1
    C65(1)    R26       1
    C66(1)    R27       1
    C67(1)    R28       1
    C68(1)    R29       1
    C69(1)    R30       1
    C70(1)    R31       1
    C71(1)    R32       1
    C72(1)    R33       1
    C73(1)    R34       1
    C74(1)    R35       1
    C75(1)    R36       1
    C76(1)    R37       1
    C77(1)    R38       1
    C78(1)    R39       1
    C79(1)    R40       1
RHS
    RHS1      R0        1.2822222222222223e+02
    RHS1      R1        63
    RHS1      R2        64
    RHS1      R3        61
    RHS1      R4        57
    RHS1      R5        85
    RHS1      R6        89
    RHS1      R7        76
    RHS1      R8        74
    RHS1      R9        87
    RHS1      R10       52
    RHS1      R11       52
    RHS1      R12       71
    RHS1      R13       94
    RHS1      R14       84
    RHS1      R15       93
    RHS1      R16       70
    RHS1      R17       77
    RHS1      R18       99
    RHS1      R19       82
    RHS1      R20       56
    RHS1      R21       66
    RHS1      R22       84
    RHS1      R23       59
    RHS1      R24       99
    RHS1      R25       71
    RHS1      R26       51
    RHS1      R27       55
    RHS1      R28       84
    RHS1      R29       99
    RHS1      R30       98
    RHS1      R31       60
    RHS1      R32       60
    RHS1      R33       89
    RHS1      R34       68
    RHS1      R35       50
    RHS1      R36       83
    RHS1      R37       75
    RHS1      R38       91
    RHS1      R39       64
    RHS1      R40       12
BOUNDS
 UP BND1      I0(3)     1
 UP BND1      I1(3)     1
 UP BND1      I2(2)     1
 UP BND1      I3(3)     1
 UP BND1      I4(3)     1
 UP BND1      I5(3)     1
 UP BND1      I6(3)     1
 UP BND1      I7(3)     1
 UP BND1      I8(3)     1
 UP BND1      I9(3)     1
 UP BND1      I10(3)    1
 UP BND1      I11(3)    1
 UP BND1      I12(3)    1
 UP BND1      I13(3)    1
 UP BND1      I14(3)    1
 UP BND1      I15(3)    1
 UP BND1      I16(3)    1
 UP BND1      I17(3)    1
 UP BND1      I18(3)    1
 UP BND1      I19(3)    1
 UP BND1      I20(3)    1
 UP BND1      I21(3)    1
 UP BND1      I22(3)    1
 UP BND1      I23(3)    1
 UP BND1      I24(3)    1
 UP BND1      I25(3)    1
 UP BND1      I26(3)    1
 UP BND1      I27(3)    1
 UP BND1      I28(3)    1
 UP BND1      I29(3)    1
 UP BND1      I30(3)    1
 UP BND1      I31(3)    1
 UP BND1      I32(3)    1
 UP BND1      I33(3)    1
 UP BND1      I34(3)    1
 UP BND1      I35(3)    1
 UP BND1      I36(3)    1
 UP BND1      I37(3)    1
ENDATA
